[info | PowerModels]: Suppressing information and warning messages for the rest of this session.  Use the Memento package for more fine-grained control of logging.

******************************************************************************
This program contains Ipopt, a library for large-scale nonlinear optimization.
 Ipopt is released as open source code under the Eclipse Public License (EPL).
         For more information visit https://github.com/coin-or/Ipopt
******************************************************************************

This is Ipopt version 3.14.19, running with linear solver ma27.

Number of nonzeros in equality constraint Jacobian...:     2574
Number of nonzeros in inequality constraint Jacobian.:      646
Number of nonzeros in Lagrangian Hessian.............:     3775

Total number of variables............................:      750
                     variables with only lower bounds:       25
                variables with lower and upper bounds:      600
                     variables with only upper bounds:        0
Total number of equality constraints.................:      624
Total number of inequality constraints...............:      323
        inequality constraints with only lower bounds:        0
   inequality constraints with lower and upper bounds:      148
        inequality constraints with only upper bounds:      175

iter    objective    inf_pr   inf_du lg(mu)  ||d||  lg(rg) alpha_du alpha_pr  ls
   0  1.5987484e+02 1.09e+00 1.04e+02  -1.0 0.00e+00    -  0.00e+00 0.00e+00   0
   1  2.3370513e+02 1.09e+00 1.04e+02  -1.0 1.78e+00    -  5.85e-03 3.88e-03h  1
   2  1.1460088e+03 1.04e+00 9.95e+01  -1.0 1.87e+00    -  1.26e-02 4.08e-02h  1
   3  1.8374962e+03 1.01e+00 9.69e+01  -1.0 1.76e+00    -  4.76e-02 2.58e-02h  1

Number of Iterations....: 3

                                   (scaled)                 (unscaled)
Objective...............:   3.6749924606083584e+02    1.8374962303041791e+03
Dual infeasibility......:   9.6948673250227074e+01    4.8474336625113540e+02
Constraint violation....:   1.0146199249281636e+00    1.0146199249281636e+00
Variable bound violation:   0.0000000000000000e+00    0.0000000000000000e+00
Complementarity.........:   7.5725589817069649e+03    3.7862794908534823e+04
Overall NLP error.......:   7.5725589817069649e+03    3.7862794908534823e+04


Number of objective function evaluations             = 4
Number of objective gradient evaluations             = 4
Number of equality constraint evaluations            = 4
Number of inequality constraint evaluations          = 4
Number of equality constraint Jacobian evaluations   = 4
Number of inequality constraint Jacobian evaluations = 4
Number of Lagrangian Hessian evaluations             = 3
Total seconds in IPOPT                               = 4.432

EXIT: Maximum Number of Iterations Exceeded.
[ Info: Loading cached JLD2 file
ERROR: LoadError: BoundsError: attempt to access Bool at index [2]
Stacktrace:
 [1] indexed_iterate(I::Bool, i::Int64, state::Nothing)
   @ Base ./tuple.jl:101
 [2] solve_benchmark_cases(cases::Vector{String}, tol::Float64, hardware::String; coords::String, case_style::String, curve::Vector{Float64}, mp::Bool, storage::Bool, sc::Bool, corrective_action_ratio::Float64, include_ctg::Bool, storage_complementarity_constraint::Bool)
   @ Main ~/ExaModelsPower.jl/benchmarking/benchmark/benchmark_opf.jl:1071
 [3] top-level scope
   @ ~/ExaModelsPower.jl/benchmarking/benchmark/run_stor_cpu.jl:5
in expression starting at /home/sanjayjo/ExaModelsPower.jl/benchmarking/benchmark/run_stor_cpu.jl:4
No existing results found
This is MadNLP version v0.8.10, running with ma86 v1.7.4

Number of nonzeros in constraint Jacobian............:     3293
Number of nonzeros in Lagrangian Hessian.............:     3800

Total number of variables............................:      775
                     variables with only lower bounds:       25
                variables with lower and upper bounds:      625
                     variables with only upper bounds:        0
Total number of equality constraints.................:      624
Total number of inequality constraints...............:      323
        inequality constraints with only lower bounds:        0
   inequality constraints with lower and upper bounds:      148
        inequality constraints with only upper bounds:      175

iter    objective    inf_pr   inf_du inf_compl lg(mu)  ||d||  lg(rg) alpha_du alpha_pr  ls
   0  1.5987484e+02 1.09e+00 1.00e+02 8.10e+03  -1.0 0.00e+00    -  0.00e+00 0.00e+00   0
   1  1.5986794e+02 1.09e+00 2.25e+02 2.72e+02  -1.0 2.26e+01    -  1.30e-03 4.00e-07h  1
   2  2.0978722e+02 1.09e+00 4.19e+01 4.94e+01  -1.0 1.77e+00    -  5.84e-03 2.61e-03h  1
   3  3.1097096e+02 1.08e+00 1.73e+01 1.83e+01  -1.0 1.88e+00    -  1.22e-02 5.29e-03h  1

Number of Iterations....: 3

                                   (scaled)                 (unscaled)
Objective...............:   5.9572982476520970e+01    3.1097095542138334e+02
Dual infeasibility......:   1.7339888323814431e+01    9.0514213235535905e+01
Constraint violation....:   1.0814073868640093e+00    1.0814073868640093e+00
Complementarity.........:   3.5035341157934212e+00    1.8288447313664154e+01
Overall NLP error.......:   1.8288447313664154e+01    1.8288447313664154e+01

Number of objective function evaluations             = 4
Number of objective gradient evaluations             = 4
Number of constraint evaluations                     = 4
Number of constraint Jacobian evaluations            = 4
Number of Lagrangian Hessian evaluations             = 3
Total wall-clock secs in solver (w/o fun. eval./lin. alg.)  = 25.104
Total wall-clock secs in linear solver                      =  0.383
Total wall-clock secs in NLP function evaluations           =  0.000
Total wall-clock secs                                       = 25.488

EXIT: Maximum Number of Iterations Exceeded.
Already have 0 cases stored.
pglib_opf_case3_lmbd
